20
0 1 0.45 0.36
0 2 0.52 0.3
0 3 0.77 0.28
0 4 0.48 0.2
0 5 0.48 0.4
0 6 0.64 0.26
0 7 0.43 0.34
0 8 0.68 0.28
0 9 0.78 0.43
0 10 0.74 0.02
0 11 0.7 0.3
0 12 0.71 0.38
0 13 0.62 0.12
0 14 0.44 0.18
0 15 0.64 0.31
0 16 0.66 0.25
0 17 0.51 0.19
0 18 0.8 0.26
0 19 0.48 0.16
1 2 0.46 0.26
1 3 0.32 0.08
1 4 0.52 0.26
1 5 0.55 0.06
1 6 0.74 0.46
1 7 0.57 0.44
1 8 0.67 0.34
1 9 0.52 0.46
1 10 0.58 0.38
1 11 0.88 0.44
1 12 0.58 0.41
1 13 0.66 0.34
1 14 0.46 0.44
1 15 0.46 0.34
1 16 0.69 0.28
1 17 0.5 0.4
1 18 0.6 0.2
1 19 0.78 0.3
2 3 0.54 0.34
2 4 0.6 0.12
2 5 0.54 0.22
2 6 0.4 0.32
2 7 0.64 0.29
2 8 0.65 0.12
2 9 0.26 0.2
2 10 0.34 0.28
2 11 0.76 0.3
2 12 0.58 0.33
2 13 0.46 0.2
2 14 0.5 0.22
2 15 0.56 0.2
2 16 0.7 0.14
2 17 0.54 0.22
2 18 0.63 0.06
2 19 0.52 0.21
3 4 0.6 0.34
3 5 0.74 0.14
3 6 0.42 0.38
3 7 0.55 0.52
3 8 0.69 0.36
3 9 0.66 0.46
3 10 0.5 0.3
3 11 0.56 0.52
3 12 0.66 0.49
3 13 0.64 0.34
3 14 0.5 0.42
3 15 0.78 0.3
3 16 0.42 0.36
3 17 0.7 0.46
3 18 0.28 0.28
3 19 0.56 0.38
4 5 0.56 0.32
4 6 0.78 0.22
4 7 0.6 0.21
4 8 0.63 0.24
4 9 0.65 0.23
4 10 0.64 0.22
4 11 0.42 0.36
4 12 0.63 0.25
4 13 0.14 0.08
4 14 0.7 0.33
4 15 0.34 0.2
4 16 0.24 0.14
4 17 0.46 0.34
4 18 0.38 0.06
4 19 0.26 0.24
5 6 0.92 0.4
5 7 0.63 0.42
5 8 0.48 0.34
5 9 0.7 0.42
5 10 0.66 0.4
5 11 0.8 0.5
5 12 0.48 0.4
5 13 0.5 0.4
5 14 0.79 0.44
5 15 0.9 0.4
5 16 0.6 0.34
5 17 0.54 0.44
5 18 0.46 0.26
5 19 0.62 0.24
6 7 0.76 0.39
6 8 0.67 0.23
6 9 0.58 0.45
6 10 0.7 0.28
6 11 0.36 0.34
6 12 0.48 0.35
6 13 0.66 0.14
6 14 0.53 0.33
6 15 0.54 0.2
6 16 0.72 0.26
6 17 0.62 0.33
6 18 0.68 0.28
6 19 0.66 0.42
7 8 0.51 0.31
7 9 0.47 0.09
7 10 0.4 0.36
7 11 0.82 0.33
7 12 0.28 0.04
7 13 0.62 0.29
7 14 0.74 0.21
7 15 0.9 0.26
7 16 0.79 0.32
7 17 0.34 0.22
7 18 0.65 0.27
7 19 0.68 0.26
8 9 0.39 0.25
8 10 0.51 0.27
8 11 0.51 0.22
8 12 0.44 0.35
8 13 0.55 0.32
8 14 0.65 0.1
8 15 0.7 0.24
8 16 0.64 0.26
8 17 0.17 0.1
8 18 0.52 0.18
8 19 0.7 0.19
9 10 0.6 0.45
9 11 0.5 0.38
9 12 0.62 0.13
9 13 0.7 0.31
9 14 0.76 0.3
9 15 0.54 0.35
9 16 0.44 0.34
9 17 0.56 0.31
9 18 0.55 0.26
9 19 0.5 0.35
10 11 0.92 0.32
10 12 0.67 0.4
10 13 0.74 0.14
10 14 0.36 0.2
10 15 0.52 0.29
10 16 0.4 0.23
10 17 0.34 0.17
10 18 0.29 0.28
10 19 0.66 0.18
11 12 0.54 0.37
11 13 0.5 0.28
11 14 0.72 0.12
11 15 0.62 0.26
11 16 0.58 0.32
11 17 0.59 0.32
11 18 0.72 0.36
11 19 0.34 0.3
12 13 0.77 0.33
12 14 0.5 0.25
12 15 0.7 0.3
12 16 0.52 0.36
12 17 0.5 0.26
12 18 0.38 0.31
12 19 0.68 0.3
13 14 0.7 0.3
13 15 0.48 0.28
13 16 0.38 0.22
13 17 0.6 0.31
13 18 0.52 0.14
13 19 0.4 0.28
14 15 0.47 0.14
14 16 0.68 0.2
14 17 0.7 0.2
14 18 0.65 0.28
14 19 0.82 0.29
15 16 0.4 0.06
15 17 0.62 0.32
15 18 0.54 0.14
15 19 0.52 0.26
16 17 0.7 0.35
16 18 0.14 0.08
16 19 0.5 0.26
17 18 0.58 0.28
17 19 0.72 0.29
18 19 0.38 0.18
